p cnf 472 856
-7 -4 -1 44 0
-41 -4 -1 45 0
-41 -38 -1 46 0
-41 -38 -35 47 0
6 19 48 0
6 25 49 0
19 38 50 0
25 38 51 0
1 25 52 0
1 31 53 0
1 14 54 0
1 14 55 0
1 25 56 0
1 20 57 0
1 20 58 0
1 31 59 0
8 38 60 0
8 38 61 0
19 38 62 0
14 38 63 0
14 38 64 0
14 33 65 0
25 38 66 0
20 33 67 0
-38 -35 -32 68 0
-8 -5 -2 69 0
-42 -5 -2 70 0
-42 -39 -2 71 0
-42 -39 -36 72 0
7 20 73 0
7 26 74 0
20 39 75 0
26 39 76 0
2 26 77 0
2 32 78 0
2 15 79 0
2 15 80 0
2 26 81 0
2 21 82 0
2 21 83 0
2 32 84 0
9 39 85 0
9 39 86 0
20 39 87 0
15 39 88 0
15 39 89 0
15 34 90 0
26 39 91 0
21 34 92 0
-39 -36 -33 93 0
-9 -6 -3 94 0
-43 -6 -3 95 0
-43 -40 -3 96 0
-43 -40 -37 97 0
8 21 98 0
8 27 99 0
21 40 100 0
27 40 101 0
3 27 102 0
3 33 103 0
3 16 104 0
3 16 105 0
3 27 106 0
3 22 107 0
3 22 108 0
3 33 109 0
10 40 110 0
10 40 111 0
21 40 112 0
16 40 113 0
16 40 114 0
16 35 115 0
27 40 116 0
22 35 117 0
-40 -37 -34 118 0
-10 -7 -4 119 0
9 22 120 0
9 28 121 0
22 41 122 0
28 41 123 0
4 28 124 0
4 34 125 0
4 17 126 0
4 17 127 0
4 28 128 0
4 23 129 0
4 23 130 0
4 34 131 0
11 41 132 0
11 41 133 0
22 41 134 0
17 41 135 0
17 41 136 0
17 36 137 0
28 41 138 0
23 36 139 0
-11 -8 -5 140 0
10 23 141 0
10 29 142 0
23 42 143 0
29 42 144 0
5 29 145 0
5 35 146 0
5 18 147 0
5 18 148 0
5 29 149 0
5 24 150 0
5 24 151 0
5 35 152 0
12 42 153 0
12 42 154 0
23 42 155 0
18 42 156 0
18 42 157 0
18 37 158 0
29 42 159 0
24 37 160 0
-12 -9 -6 161 0
11 24 162 0
11 30 163 0
24 43 164 0
30 43 165 0
6 30 166 0
6 36 167 0
6 19 168 0
6 30 169 0
6 25 170 0
6 36 171 0
13 43 172 0
13 43 173 0
24 43 174 0
19 43 175 0
19 43 176 0
30 43 177 0
-13 -10 -7 178 0
12 25 179 0
12 31 180 0
7 31 181 0
7 37 182 0
7 20 183 0
7 31 184 0
7 26 185 0
7 37 186 0
-14 -11 -8 187 0
13 26 188 0
13 32 189 0
8 32 190 0
8 21 191 0
8 32 192 0
8 27 193 0
-15 -12 -9 194 0
14 27 195 0
14 33 196 0
9 33 197 0
9 22 198 0
9 33 199 0
9 28 200 0
-16 -13 -10 201 0
15 28 202 0
15 34 203 0
10 34 204 0
10 23 205 0
10 34 206 0
10 29 207 0
-17 -14 -11 208 0
16 29 209 0
16 35 210 0
11 35 211 0
11 24 212 0
11 35 213 0
11 30 214 0
-18 -15 -12 215 0
17 30 216 0
17 36 217 0
12 36 218 0
12 25 219 0
12 36 220 0
12 31 221 0
-19 -16 -13 222 0
18 31 223 0
18 37 224 0
13 37 225 0
13 26 226 0
13 37 227 0
13 32 228 0
-20 -17 -14 229 0
19 32 230 0
14 27 231 0
-21 -18 -15 232 0
20 33 233 0
15 28 234 0
-22 -19 -16 235 0
21 34 236 0
16 29 237 0
-23 -20 -17 238 0
22 35 239 0
17 30 240 0
-24 -21 -18 241 0
23 36 242 0
18 31 243 0
-25 -22 -19 244 0
24 37 245 0
19 32 246 0
-26 -23 -20 247 0
-27 -24 -21 248 0
-28 -25 -22 249 0
-29 -26 -23 250 0
-30 -27 -24 251 0
-31 -28 -25 252 0
-32 -29 -26 253 0
-33 -30 -27 254 0
-34 -31 -28 255 0
-35 -32 -29 256 0
-36 -33 -30 257 0
-37 -34 -31 258 0
-44 259 0
-45 260 0
-259 260 0
-45 -259 0
-46 261 0
-260 261 0
-46 -260 0
-47 262 0
-261 262 0
-47 -261 0
-48 263 0
-262 263 0
-48 -262 0
-49 264 0
-263 264 0
-49 -263 0
-50 265 0
-264 265 0
-50 -264 0
-51 266 0
-265 266 0
-51 -265 0
-52 267 0
-266 267 0
-52 -266 0
-53 268 0
-267 268 0
-53 -267 0
-54 269 0
-268 269 0
-54 -268 0
-55 270 0
-269 270 0
-55 -269 0
-56 271 0
-270 271 0
-56 -270 0
-57 272 0
-271 272 0
-57 -271 0
-58 273 0
-272 273 0
-58 -272 0
-59 274 0
-273 274 0
-59 -273 0
-60 275 0
-274 275 0
-60 -274 0
-61 276 0
-275 276 0
-61 -275 0
-62 277 0
-276 277 0
-62 -276 0
-63 278 0
-277 278 0
-63 -277 0
-64 279 0
-278 279 0
-64 -278 0
-65 280 0
-279 280 0
-65 -279 0
-66 281 0
-280 281 0
-66 -280 0
-67 282 0
-281 282 0
-67 -281 0
-68 283 0
-282 283 0
-68 -282 0
-69 284 0
-283 284 0
-69 -283 0
-70 285 0
-284 285 0
-70 -284 0
-71 286 0
-285 286 0
-71 -285 0
-72 287 0
-286 287 0
-72 -286 0
-73 288 0
-287 288 0
-73 -287 0
-74 289 0
-288 289 0
-74 -288 0
-75 290 0
-289 290 0
-75 -289 0
-76 291 0
-290 291 0
-76 -290 0
-77 292 0
-291 292 0
-77 -291 0
-78 293 0
-292 293 0
-78 -292 0
-79 294 0
-293 294 0
-79 -293 0
-80 295 0
-294 295 0
-80 -294 0
-81 296 0
-295 296 0
-81 -295 0
-82 297 0
-296 297 0
-82 -296 0
-83 298 0
-297 298 0
-83 -297 0
-84 299 0
-298 299 0
-84 -298 0
-85 300 0
-299 300 0
-85 -299 0
-86 301 0
-300 301 0
-86 -300 0
-87 302 0
-301 302 0
-87 -301 0
-88 303 0
-302 303 0
-88 -302 0
-89 304 0
-303 304 0
-89 -303 0
-90 305 0
-304 305 0
-90 -304 0
-91 306 0
-305 306 0
-91 -305 0
-92 307 0
-306 307 0
-92 -306 0
-93 308 0
-307 308 0
-93 -307 0
-94 309 0
-308 309 0
-94 -308 0
-95 310 0
-309 310 0
-95 -309 0
-96 311 0
-310 311 0
-96 -310 0
-97 312 0
-311 312 0
-97 -311 0
-98 313 0
-312 313 0
-98 -312 0
-99 314 0
-313 314 0
-99 -313 0
-100 315 0
-314 315 0
-100 -314 0
-101 316 0
-315 316 0
-101 -315 0
-102 317 0
-316 317 0
-102 -316 0
-103 318 0
-317 318 0
-103 -317 0
-104 319 0
-318 319 0
-104 -318 0
-105 320 0
-319 320 0
-105 -319 0
-106 321 0
-320 321 0
-106 -320 0
-107 322 0
-321 322 0
-107 -321 0
-108 323 0
-322 323 0
-108 -322 0
-109 324 0
-323 324 0
-109 -323 0
-110 325 0
-324 325 0
-110 -324 0
-111 326 0
-325 326 0
-111 -325 0
-112 327 0
-326 327 0
-112 -326 0
-113 328 0
-327 328 0
-113 -327 0
-114 329 0
-328 329 0
-114 -328 0
-115 330 0
-329 330 0
-115 -329 0
-116 331 0
-330 331 0
-116 -330 0
-117 332 0
-331 332 0
-117 -331 0
-118 333 0
-332 333 0
-118 -332 0
-119 334 0
-333 334 0
-119 -333 0
-120 335 0
-334 335 0
-120 -334 0
-121 336 0
-335 336 0
-121 -335 0
-122 337 0
-336 337 0
-122 -336 0
-123 338 0
-337 338 0
-123 -337 0
-124 339 0
-338 339 0
-124 -338 0
-125 340 0
-339 340 0
-125 -339 0
-126 341 0
-340 341 0
-126 -340 0
-127 342 0
-341 342 0
-127 -341 0
-128 343 0
-342 343 0
-128 -342 0
-129 344 0
-343 344 0
-129 -343 0
-130 345 0
-344 345 0
-130 -344 0
-131 346 0
-345 346 0
-131 -345 0
-132 347 0
-346 347 0
-132 -346 0
-133 348 0
-347 348 0
-133 -347 0
-134 349 0
-348 349 0
-134 -348 0
-135 350 0
-349 350 0
-135 -349 0
-136 351 0
-350 351 0
-136 -350 0
-137 352 0
-351 352 0
-137 -351 0
-138 353 0
-352 353 0
-138 -352 0
-139 354 0
-353 354 0
-139 -353 0
-140 355 0
-354 355 0
-140 -354 0
-141 356 0
-355 356 0
-141 -355 0
-142 357 0
-356 357 0
-142 -356 0
-143 358 0
-357 358 0
-143 -357 0
-144 359 0
-358 359 0
-144 -358 0
-145 360 0
-359 360 0
-145 -359 0
-146 361 0
-360 361 0
-146 -360 0
-147 362 0
-361 362 0
-147 -361 0
-148 363 0
-362 363 0
-148 -362 0
-149 364 0
-363 364 0
-149 -363 0
-150 365 0
-364 365 0
-150 -364 0
-151 366 0
-365 366 0
-151 -365 0
-152 367 0
-366 367 0
-152 -366 0
-153 368 0
-367 368 0
-153 -367 0
-154 369 0
-368 369 0
-154 -368 0
-155 370 0
-369 370 0
-155 -369 0
-156 371 0
-370 371 0
-156 -370 0
-157 372 0
-371 372 0
-157 -371 0
-158 373 0
-372 373 0
-158 -372 0
-159 374 0
-373 374 0
-159 -373 0
-160 375 0
-374 375 0
-160 -374 0
-161 376 0
-375 376 0
-161 -375 0
-162 377 0
-376 377 0
-162 -376 0
-163 378 0
-377 378 0
-163 -377 0
-164 379 0
-378 379 0
-164 -378 0
-165 380 0
-379 380 0
-165 -379 0
-166 381 0
-380 381 0
-166 -380 0
-167 382 0
-381 382 0
-167 -381 0
-168 383 0
-382 383 0
-168 -382 0
-169 384 0
-383 384 0
-169 -383 0
-170 385 0
-384 385 0
-170 -384 0
-171 386 0
-385 386 0
-171 -385 0
-172 387 0
-386 387 0
-172 -386 0
-173 388 0
-387 388 0
-173 -387 0
-174 389 0
-388 389 0
-174 -388 0
-175 390 0
-389 390 0
-175 -389 0
-176 391 0
-390 391 0
-176 -390 0
-177 392 0
-391 392 0
-177 -391 0
-178 393 0
-392 393 0
-178 -392 0
-179 394 0
-393 394 0
-179 -393 0
-180 395 0
-394 395 0
-180 -394 0
-181 396 0
-395 396 0
-181 -395 0
-182 397 0
-396 397 0
-182 -396 0
-183 398 0
-397 398 0
-183 -397 0
-184 399 0
-398 399 0
-184 -398 0
-185 400 0
-399 400 0
-185 -399 0
-186 401 0
-400 401 0
-186 -400 0
-187 402 0
-401 402 0
-187 -401 0
-188 403 0
-402 403 0
-188 -402 0
-189 404 0
-403 404 0
-189 -403 0
-190 405 0
-404 405 0
-190 -404 0
-191 406 0
-405 406 0
-191 -405 0
-192 407 0
-406 407 0
-192 -406 0
-193 408 0
-407 408 0
-193 -407 0
-194 409 0
-408 409 0
-194 -408 0
-195 410 0
-409 410 0
-195 -409 0
-196 411 0
-410 411 0
-196 -410 0
-197 412 0
-411 412 0
-197 -411 0
-198 413 0
-412 413 0
-198 -412 0
-199 414 0
-413 414 0
-199 -413 0
-200 415 0
-414 415 0
-200 -414 0
-201 416 0
-415 416 0
-201 -415 0
-202 417 0
-416 417 0
-202 -416 0
-203 418 0
-417 418 0
-203 -417 0
-204 419 0
-418 419 0
-204 -418 0
-205 420 0
-419 420 0
-205 -419 0
-206 421 0
-420 421 0
-206 -420 0
-207 422 0
-421 422 0
-207 -421 0
-208 423 0
-422 423 0
-208 -422 0
-209 424 0
-423 424 0
-209 -423 0
-210 425 0
-424 425 0
-210 -424 0
-211 426 0
-425 426 0
-211 -425 0
-212 427 0
-426 427 0
-212 -426 0
-213 428 0
-427 428 0
-213 -427 0
-214 429 0
-428 429 0
-214 -428 0
-215 430 0
-429 430 0
-215 -429 0
-216 431 0
-430 431 0
-216 -430 0
-217 432 0
-431 432 0
-217 -431 0
-218 433 0
-432 433 0
-218 -432 0
-219 434 0
-433 434 0
-219 -433 0
-220 435 0
-434 435 0
-220 -434 0
-221 436 0
-435 436 0
-221 -435 0
-222 437 0
-436 437 0
-222 -436 0
-223 438 0
-437 438 0
-223 -437 0
-224 439 0
-438 439 0
-224 -438 0
-225 440 0
-439 440 0
-225 -439 0
-226 441 0
-440 441 0
-226 -440 0
-227 442 0
-441 442 0
-227 -441 0
-228 443 0
-442 443 0
-228 -442 0
-229 444 0
-443 444 0
-229 -443 0
-230 445 0
-444 445 0
-230 -444 0
-231 446 0
-445 446 0
-231 -445 0
-232 447 0
-446 447 0
-232 -446 0
-233 448 0
-447 448 0
-233 -447 0
-234 449 0
-448 449 0
-234 -448 0
-235 450 0
-449 450 0
-235 -449 0
-236 451 0
-450 451 0
-236 -450 0
-237 452 0
-451 452 0
-237 -451 0
-238 453 0
-452 453 0
-238 -452 0
-239 454 0
-453 454 0
-239 -453 0
-240 455 0
-454 455 0
-240 -454 0
-241 456 0
-455 456 0
-241 -455 0
-242 457 0
-456 457 0
-242 -456 0
-243 458 0
-457 458 0
-243 -457 0
-244 459 0
-458 459 0
-244 -458 0
-245 460 0
-459 460 0
-245 -459 0
-246 461 0
-460 461 0
-246 -460 0
-247 462 0
-461 462 0
-247 -461 0
-248 463 0
-462 463 0
-248 -462 0
-249 464 0
-463 464 0
-249 -463 0
-250 465 0
-464 465 0
-250 -464 0
-251 466 0
-465 466 0
-251 -465 0
-252 467 0
-466 467 0
-252 -466 0
-253 468 0
-467 468 0
-253 -467 0
-254 469 0
-468 469 0
-254 -468 0
-255 470 0
-469 470 0
-255 -469 0
-256 471 0
-470 471 0
-256 -470 0
-257 472 0
-471 472 0
-257 -471 0
-258 -472 0
